db/data/222992648729409606212689263481856629369.z3.out
sat
-------------------
352.801031245
